p edge 500 3630
e 1 74
e 1 108
e 1 142
e 1 156
e 1 164
e 1 256
e 1 265
e 1 353
e 1 416
e 1 445
e 2 84
e 2 112
e 2 142
e 2 154
e 2 200
e 2 256
e 2 273
e 2 329
e 2 335
e 2 422
e 2 432
e 2 470
e 2 477
e 3 9
e 3 30
e 3 198
e 3 203
e 3 217
e 3 306
e 3 369
e 3 381
e 3 415
e 3 442
e 3 453
e 3 498
e 4 9
e 4 50
e 4 54
e 4 79
e 4 105
e 4 133
e 4 153
e 4 255
e 4 353
e 4 371
e 4 435
e 4 437
e 4 455
e 4 466
e 5 23
e 5 29
e 5 105
e 5 165
e 5 195
e 5 264
e 5 285
e 5 290
e 5 291
e 5 296
e 5 302
e 5 319
e 5 358
e 5 412
e 5 489
e 5 499
e 6 12
e 6 39
e 6 132
e 6 251
e 6 252
e 6 263
e 6 265
e 6 277
e 6 334
e 6 380
e 6 404
e 6 462
e 7 57
e 7 83
e 7 111
e 7 170
e 7 175
e 7 188
e 7 248
e 7 301
e 7 324
e 7 358
e 7 402
e 7 431
e 7 440
e 8 11
e 8 23
e 8 27
e 8 48
e 8 168
e 8 176
e 8 207
e 8 208
e 8 230
e 8 376
e 8 425
e 8 438
e 9 62
e 9 67
e 9 194
e 9 207
e 9 236
e 9 299
e 9 324
e 9 337
e 9 370
e 9 414
e 9 429
e 10 144
e 10 161
e 10 184
e 10 204
e 10 214
e 10 249
e 10 252
e 10 276
e 10 302
e 10 335
e 10 345
e 10 352
e 10 369
e 10 373
e 10 396
e 11 47
e 11 50
e 11 56
e 11 126
e 11 158
e 11 177
e 11 199
e 11 207
e 11 234
e 11 235
e 11 266
e 11 346
e 11 350
e 11 497
e 11 499
e 12 73
e 12 131
e 12 171
e 12 197
e 12 210
e 12 224
e 12 293
e 12 304
e 12 331
e 12 382
e 12 420
e 12 481
e 13 32
e 13 33
e 13 69
e 13 88
e 13 89
e 13 96
e 13 105
e 13 110
e 13 141
e 13 152
e 13 189
e 13 234
e 13 278
e 13 340
e 13 344
e 13 423
e 14 57
e 14 95
e 14 122
e 14 131
e 14 134
e 14 151
e 14 210
e 14 224
e 14 245
e 14 290
e 14 318
e 14 362
e 14 411
e 14 487
e 15 51
e 15 80
e 15 98
e 15 100
e 15 126
e 15 141
e 15 155
e 15 166
e 15 273
e 15 280
e 15 329
e 15 365
e 15 471
e 15 493
e 16 88
e 16 100
e 16 135
e 16 136
e 16 181
e 16 197
e 16 205
e 16 273
e 16 274
e 16 293
e 16 315
e 16 367
e 16 376
e 16 390
e 16 435
e 16 480
e 17 64
e 17 70
e 17 73
e 17 99
e 17 151
e 17 152
e 17 174
e 17 185
e 17 190
e 17 243
e 17 301
e 17 328
e 17 392
e 17 471
e 18 22
e 18 41
e 18 141
e 18 204
e 18 250
e 18 290
e 18 309
e 18 311
e 18 385
e 18 442
e 18 467
e 18 471
e 19 45
e 19 59
e 19 77
e 19 79
e 19 141
e 19 165
e 19 169
e 19 171
e 19 194
e 19 210
e 19 215
e 19 216
e 19 263
e 19 277
e 19 321
e 19 322
e 19 351
e 19 409
e 19 479
e 19 488
e 19 491
e 19 494
e 20 38
e 20 126
e 20 177
e 20 226
e 20 306
e 20 335
e 20 481
e 21 47
e 21 78
e 21 95
e 21 109
e 21 125
e 21 131
e 21 174
e 21 178
e 21 229
e 21 237
e 21 269
e 21 290
e 21 314
e 21 383
e 21 420
e 21 433
e 21 462
e 21 472
e 22 42
e 22 71
e 22 131
e 22 185
e 22 214
e 22 263
e 22 324
e 22 341
e 22 350
e 22 398
e 22 414
e 22 445
e 22 450
e 22 462
e 22 463
e 22 472
e 22 480
e 23 45
e 23 119
e 23 192
e 23 194
e 23 220
e 23 272
e 23 283
e 23 320
e 23 357
e 23 392
e 23 402
e 23 406
e 23 432
e 24 105
e 24 106
e 24 163
e 24 176
e 24 207
e 24 223
e 24 244
e 24 261
e 24 268
e 24 270
e 24 305
e 24 321
e 24 322
e 24 382
e 24 438
e 24 497
e 25 37
e 25 73
e 25 93
e 25 97
e 25 146
e 25 188
e 25 247
e 25 258
e 25 282
e 25 320
e 25 327
e 25 330
e 25 336
e 25 340
e 25 356
e 25 367
e 25 420
e 25 430
e 25 494
e 26 28
e 26 43
e 26 56
e 26 100
e 26 256
e 26 258
e 26 321
e 26 410
e 26 419
e 27 39
e 27 52
e 27 58
e 27 62
e 27 63
e 27 71
e 27 79
e 27 85
e 27 162
e 27 232
e 27 262
e 27 332
e 27 379
e 27 384
e 27 439
e 27 452
e 27 498
e 28 140
e 28 146
e 28 164
e 28 217
e 28 237
e 28 241
e 28 242
e 28 296
e 28 376
e 28 420
e 28 426
e 28 431
e 28 441
e 29 49
e 29 85
e 29 92
e 29 110
e 29 133
e 29 154
e 29 241
e 29 294
e 29 318
e 29 337
e 29 345
e 29 414
e 29 484
e 29 494
e 30 83
e 30 99
e 30 107
e 30 125
e 30 138
e 30 171
e 30 242
e 30 247
e 30 261
e 30 306
e 30 369
e 30 376
e 30 424
e 30 430
e 30 436
e 30 450
e 30 472
e 30 493
e 31 41
e 31 47
e 31 57
e 31 80
e 31 94
e 31 109
e 31 175
e 31 181
e 31 202
e 31 266
e 31 327
e 31 331
e 31 341
e 31 364
e 31 378
e 31 383
e 31 402
e 31 443
e 32 108
e 32 118
e 32 186
e 32 216
e 32 230
e 32 300
e 32 351
e 32 371
e 32 430
e 32 440
e 32 490
e 33 101
e 33 158
e 33 183
e 33 245
e 33 270
e 33 296
e 33 375
e 33 383
e 33 411
e 33 434
e 34 35
e 34 62
e 34 82
e 34 168
e 34 200
e 34 205
e 34 236
e 34 280
e 34 356
e 34 376
e 34 386
e 34 417
e 34 433
e 34 462
e 34 466
e 35 53
e 35 76
e 35 91
e 35 124
e 35 250
e 35 261
e 35 304
e 35 319
e 35 336
e 35 362
e 35 375
e 35 377
e 35 388
e 36 45
e 36 62
e 36 65
e 36 99
e 36 115
e 36 117
e 36 165
e 36 175
e 36 185
e 36 198
e 36 244
e 36 317
e 36 344
e 36 426
e 36 474
e 36 480
e 36 487
e 37 62
e 37 136
e 37 326
e 37 356
e 37 417
e 37 466
e 37 471
e 37 475
e 38 120
e 38 179
e 38 241
e 38 242
e 38 276
e 38 322
e 38 330
e 38 359
e 38 394
e 39 56
e 39 57
e 39 72
e 39 88
e 39 158
e 39 166
e 39 170
e 39 218
e 39 228
e 39 248
e 39 266
e 39 322
e 39 374
e 39 418
e 39 420
e 39 444
e 39 494
e 39 495
e 40 62
e 40 84
e 40 87
e 40 137
e 40 146
e 40 159
e 40 187
e 40 191
e 40 222
e 40 225
e 40 234
e 40 254
e 40 261
e 40 370
e 40 380
e 40 434
e 41 52
e 41 91
e 41 92
e 41 97
e 41 119
e 41 151
e 41 242
e 41 248
e 41 282
e 41 286
e 41 293
e 41 299
e 41 332
e 41 368
e 41 399
e 41 464
e 41 487
e 42 81
e 42 116
e 42 169
e 42 182
e 42 245
e 42 278
e 42 301
e 42 310
e 42 389
e 42 443
e 42 450
e 43 116
e 43 138
e 43 150
e 43 164
e 43 221
e 43 265
e 43 306
e 43 332
e 43 360
e 43 367
e 43 372
e 43 389
e 43 407
e 43 459
e 43 495
e 44 51
e 44 252
e 44 263
e 44 269
e 44 271
e 44 304
e 44 307
e 44 372
e 44 461
e 45 55
e 45 70
e 45 115
e 45 186
e 45 239
e 45 279
e 45 326
e 45 335
e 45 423
e 46 70
e 46 95
e 46 145
e 46 230
e 46 272
e 46 307
e 46 338
e 46 347
e 46 366
e 46 380
e 46 385
e 46 398
e 46 445
e 46 478
e 47 74
e 47 84
e 47 103
e 47 123
e 47 132
e 47 135
e 47 219
e 47 248
e 47 312
e 47 320
e 47 449
e 47 467
e 47 496
e 48 60
e 48 171
e 48 234
e 48 278
e 48 335
e 48 476
e 49 117
e 49 148
e 49 183
e 49 284
e 49 322
e 49 369
e 49 375
e 49 411
e 49 421
e 49 426
e 49 453
e 50 121
e 50 140
e 50 157
e 50 176
e 50 185
e 50 256
e 50 263
e 50 285
e 50 318
e 50 343
e 50 375
e 50 392
e 50 406
e 50 427
e 50 459
e 51 77
e 51 85
e 51 86
e 51 92
e 51 167
e 51 168
e 51 207
e 51 238
e 51 243
e 51 290
e 51 338
e 51 347
e 51 379
e 51 398
e 51 417
e 51 433
e 51 495
e 52 92
e 52 116
e 52 131
e 52 139
e 52 172
e 52 173
e 52 184
e 52 218
e 52 237
e 52 258
e 52 299
e 52 319
e 52 361
e 52 369
e 52 370
e 52 379
e 52 389
e 52 396
e 52 406
e 52 428
e 52 444
e 52 488
e 53 65
e 53 82
e 53 129
e 53 143
e 53 166
e 53 176
e 53 232
e 53 233
e 53 247
e 53 272
e 53 309
e 53 406
e 53 424
e 53 434
e 53 444
e 54 60
e 54 113
e 54 125
e 54 143
e 54 170
e 54 213
e 54 260
e 54 266
e 54 270
e 54 291
e 54 343
e 54 416
e 54 453
e 54 473
e 54 498
e 55 177
e 55 317
e 55 335
e 55 344
e 55 388
e 55 399
e 55 420
e 55 424
e 55 467
e 55 468
e 55 495
e 56 73
e 56 89
e 56 106
e 56 178
e 56 230
e 56 235
e 56 291
e 56 372
e 56 422
e 56 447
e 56 479
e 57 112
e 57 113
e 57 127
e 57 131
e 57 167
e 57 210
e 57 215
e 57 328
e 57 354
e 57 459
e 58 83
e 58 111
e 58 112
e 58 153
e 58 156
e 58 168
e 58 173
e 58 203
e 58 212
e 58 219
e 58 296
e 58 318
e 58 411
e 58 423
e 58 482
e 59 78
e 59 107
e 59 137
e 59 167
e 59 251
e 59 260
e 59 387
e 59 392
e 59 473
e 59 495
e 60 73
e 60 77
e 60 190
e 60 195
e 60 230
e 60 232
e 60 254
e 60 291
e 60 309
e 60 468
e 60 474
e 60 488
e 60 495
e 61 71
e 61 85
e 61 89
e 61 95
e 61 142
e 61 204
e 61 217
e 61 222
e 61 308
e 61 341
e 61 397
e 61 453
e 62 166
e 62 186
e 62 274
e 62 279
e 62 383
e 62 393
e 62 412
e 62 414
e 62 481
e 63 81
e 63 83
e 63 91
e 63 92
e 63 154
e 63 162
e 63 165
e 63 176
e 63 194
e 63 239
e 63 242
e 63 327
e 63 384
e 63 404
e 63 455
e 63 463
e 64 73
e 64 103
e 64 228
e 64 251
e 64 351
e 64 415
e 64 444
e 64 469
e 64 485
e 64 496
e 65 140
e 65 143
e 65 149
e 65 193
e 65 212
e 65 234
e 65 250
e 65 293
e 65 314
e 65 341
e 65 441
e 65 444
e 65 448
e 65 480
e 65 495
e 66 94
e 66 181
e 66 194
e 66 248
e 66 255
e 66 263
e 66 281
e 66 290
e 66 299
e 66 320
e 66 489
e 67 105
e 67 158
e 67 160
e 67 211
e 67 332
e 67 378
e 67 474
e 67 484
e 67 489
e 68 87
e 68 90
e 68 113
e 68 178
e 68 263
e 68 285
e 68 317
e 68 336
e 68 348
e 68 461
e 68 478
e 69 75
e 69 102
e 69 136
e 69 171
e 69 183
e 69 204
e 69 229
e 69 239
e 69 260
e 69 303
e 69 310
e 69 317
e 69 356
e 69 365
e 69 452
e 69 464
e 69 475
e 70 128
e 70 137
e 70 192
e 70 194
e 70 199
e 70 261
e 70 289
e 70 319
e 70 391
e 70 463
e 70 487
e 70 497
e 71 87
e 71 101
e 71 186
e 71 196
e 71 227
e 71 303
e 71 304
e 71 328
e 71 353
e 71 372
e 71 385
e 71 391
e 71 412
e 71 413
e 71 414
e 71 415
e 71 437
e 72 100
e 72 103
e 72 119
e 72 171
e 72 176
e 72 193
e 72 196
e 72 215
e 72 220
e 72 249
e 72 298
e 72 351
e 72 389
e 73 81
e 73 82
e 73 132
e 73 153
e 73 172
e 73 200
e 73 217
e 73 327
e 73 384
e 73 393
e 74 84
e 74 89
e 74 118
e 74 125
e 74 139
e 74 158
e 74 274
e 74 303
e 74 306
e 74 372
e 74 430
e 74 477
e 74 487
e 74 489
e 74 493
e 75 79
e 75 98
e 75 148
e 75 229
e 75 252
e 75 332
e 75 395
e 75 405
e 75 473
e 76 87
e 76 90
e 76 161
e 76 165
e 76 188
e 76 205
e 76 222
e 76 260
e 76 288
e 76 297
e 76 303
e 76 317
e 76 327
e 76 333
e 76 352
e 76 370
e 76 400
e 76 410
e 76 416
e 77 130
e 77 140
e 77 191
e 77 203
e 77 218
e 77 278
e 77 309
e 77 322
e 77 326
e 77 349
e 77 386
e 77 432
e 77 442
e 77 462
e 77 469
e 77 498
e 78 89
e 78 93
e 78 99
e 78 102
e 78 113
e 78 117
e 78 129
e 78 131
e 78 201
e 78 239
e 78 276
e 78 301
e 78 321
e 78 396
e 78 400
e 78 434
e 78 437
e 79 182
e 79 193
e 79 235
e 79 262
e 79 276
e 79 284
e 79 313
e 79 400
e 79 409
e 79 419
e 79 429
e 79 431
e 79 445
e 79 463
e 80 254
e 80 259
e 80 341
e 80 413
e 80 471
e 81 98
e 81 130
e 81 149
e 81 162
e 81 201
e 81 205
e 81 213
e 81 263
e 81 278
e 81 291
e 81 294
e 81 303
e 81 306
e 81 355
e 81 387
e 81 404
e 81 452
e 81 495
e 82 98
e 82 150
e 82 185
e 82 191
e 82 205
e 82 238
e 82 268
e 82 296
e 82 302
e 82 369
e 82 377
e 82 397
e 82 433
e 82 478
e 82 500
e 83 91
e 83 116
e 83 345
e 83 346
e 83 350
e 83 364
e 83 385
e 83 413
e 83 455
e 83 456
e 83 457
e 84 149
e 84 226
e 84 270
e 84 306
e 84 389
e 84 456
e 85 92
e 85 114
e 85 125
e 85 195
e 85 198
e 85 291
e 85 302
e 85 313
e 85 328
e 85 365
e 85 438
e 85 478
e 85 486
e 86 99
e 86 101
e 86 108
e 86 251
e 86 264
e 86 281
e 86 293
e 86 304
e 86 418
e 86 433
e 87 192
e 87 225
e 87 272
e 87 291
e 87 301
e 87 322
e 87 342
e 87 364
e 87 370
e 87 391
e 87 418
e 87 432
e 88 99
e 88 121
e 88 141
e 88 162
e 88 186
e 88 247
e 88 264
e 88 271
e 88 273
e 88 274
e 88 282
e 88 333
e 88 471
e 89 124
e 89 170
e 89 206
e 89 259
e 89 269
e 89 321
e 89 324
e 89 375
e 89 432
e 89 466
e 89 494
e 90 119
e 90 142
e 90 187
e 90 224
e 90 283
e 90 297
e 90 367
e 90 377
e 90 392
e 90 404
e 90 483
e 90 493
e 91 108
e 91 152
e 91 225
e 91 258
e 91 262
e 91 378
e 91 470
e 91 491
e 91 497
e 92 125
e 92 145
e 92 235
e 92 258
e 92 304
e 92 317
e 92 323
e 92 394
e 92 461
e 92 464
e 92 492
e 93 141
e 93 144
e 93 191
e 93 196
e 93 318
e 93 339
e 93 340
e 93 356
e 93 360
e 93 409
e 93 421
e 93 466
e 93 494
e 94 172
e 94 358
e 94 397
e 94 439
e 94 441
e 95 149
e 95 153
e 95 178
e 95 223
e 95 226
e 95 284
e 95 371
e 95 373
e 95 376
e 95 402
e 95 497
e 95 500
e 96 118
e 96 176
e 96 178
e 96 179
e 96 183
e 96 210
e 96 235
e 96 275
e 96 327
e 96 357
e 96 360
e 96 376
e 96 432
e 96 450
e 97 100
e 97 143
e 97 193
e 97 309
e 97 370
e 97 386
e 97 426
e 97 446
e 97 459
e 98 100
e 98 186
e 98 189
e 98 224
e 98 268
e 98 312
e 98 326
e 98 333
e 98 364
e 98 446
e 98 479
e 99 190
e 99 222
e 99 228
e 99 231
e 99 266
e 99 267
e 99 353
e 99 367
e 99 417
e 99 484
e 99 487
e 100 118
e 100 143
e 100 237
e 100 260
e 100 327
e 100 346
e 100 368
e 100 388
e 100 395
e 100 454
e 100 473
e 101 130
e 101 136
e 101 142
e 101 181
e 101 209
e 101 227
e 101 331
e 101 378
e 101 385
e 101 489
e 102 137
e 102 139
e 102 153
e 102 167
e 102 179
e 102 223
e 102 227
e 102 283
e 102 321
e 102 338
e 102 339
e 102 348
e 102 355
e 102 381
e 102 391
e 102 426
e 102 476
e 103 145
e 103 161
e 103 184
e 103 192
e 103 233
e 103 240
e 103 332
e 103 341
e 103 361
e 103 451
e 103 488
e 104 109
e 104 193
e 104 222
e 104 245
e 104 294
e 104 304
e 104 312
e 104 314
e 104 329
e 104 339
e 104 368
e 104 384
e 104 400
e 104 401
e 104 408
e 104 448
e 104 449
e 104 455
e 105 132
e 105 225
e 105 226
e 105 289
e 105 324
e 105 326
e 105 411
e 105 413
e 105 446
e 105 499
e 106 109
e 106 127
e 106 162
e 106 176
e 106 177
e 106 203
e 106 259
e 106 279
e 106 329
e 106 348
e 106 372
e 107 137
e 107 154
e 107 174
e 107 322
e 107 438
e 107 450
e 107 454
e 107 481
e 107 493
e 107 498
e 108 126
e 108 129
e 108 272
e 108 274
e 108 323
e 108 327
e 108 331
e 108 361
e 108 395
e 108 396
e 108 464
e 108 483
e 109 116
e 109 120
e 109 121
e 109 140
e 109 169
e 109 205
e 109 281
e 109 286
e 109 359
e 109 414
e 109 441
e 109 457
e 110 126
e 110 164
e 110 203
e 110 228
e 110 357
e 110 380
e 111 134
e 111 189
e 111 265
e 111 288
e 111 321
e 111 324
e 111 333
e 111 389
e 111 396
e 111 457
e 111 458
e 112 153
e 112 166
e 112 168
e 112 175
e 112 182
e 112 190
e 112 240
e 112 254
e 112 359
e 112 377
e 112 390
e 112 407
e 112 492
e 113 230
e 113 276
e 113 376
e 114 156
e 114 165
e 114 186
e 114 235
e 114 237
e 114 250
e 114 268
e 114 274
e 114 317
e 114 322
e 114 388
e 114 390
e 114 392
e 114 460
e 114 465
e 115 147
e 115 160
e 115 195
e 115 261
e 115 262
e 115 284
e 115 311
e 115 350
e 115 485
e 115 496
e 116 141
e 116 181
e 116 191
e 116 194
e 116 213
e 116 233
e 116 284
e 116 331
e 116 374
e 116 397
e 116 398
e 116 424
e 116 473
e 116 478
e 116 480
e 117 134
e 117 159
e 117 173
e 117 279
e 117 289
e 117 305
e 117 373
e 117 379
e 117 385
e 117 397
e 117 419
e 117 420
e 117 422
e 117 478
e 118 123
e 118 136
e 118 140
e 118 182
e 118 190
e 118 203
e 118 222
e 118 322
e 118 328
e 118 341
e 119 170
e 119 177
e 119 179
e 119 281
e 119 293
e 119 318
e 119 322
e 119 336
e 119 338
e 119 406
e 119 470
e 120 148
e 120 150
e 120 217
e 120 237
e 120 268
e 120 304
e 120 341
e 120 362
e 120 376
e 120 386
e 120 436
e 120 451
e 120 457
e 120 464
e 120 485
e 121 173
e 121 174
e 121 179
e 121 206
e 121 254
e 121 317
e 121 335
e 121 376
e 121 384
e 121 395
e 121 401
e 121 437
e 121 479
e 121 480
e 122 136
e 122 194
e 122 204
e 122 225
e 122 228
e 122 300
e 122 330
e 122 345
e 122 375
e 122 402
e 122 411
e 122 413
e 122 431
e 122 454
e 122 457
e 122 465
e 122 498
e 122 499
e 123 143
e 123 163
e 123 262
e 123 312
e 123 318
e 123 319
e 123 366
e 123 381
e 123 392
e 123 394
e 123 448
e 123 455
e 123 473
e 124 135
e 124 145
e 124 211
e 124 318
e 124 348
e 124 378
e 124 409
e 124 453
e 124 486
e 125 132
e 125 135
e 125 137
e 125 155
e 125 176
e 125 217
e 125 255
e 125 268
e 125 278
e 125 296
e 125 307
e 125 385
e 125 386
e 125 388
e 125 428
e 125 434
e 125 442
e 125 477
e 126 136
e 126 185
e 126 244
e 126 269
e 126 316
e 126 325
e 126 361
e 126 400
e 126 421
e 126 496
e 127 170
e 127 179
e 127 182
e 127 204
e 127 283
e 127 316
e 127 317
e 127 329
e 127 354
e 127 370
e 127 372
e 127 406
e 127 481
e 128 166
e 128 197
e 128 217
e 128 271
e 128 298
e 128 318
e 128 353
e 128 370
e 128 371
e 128 410
e 128 457
e 128 498
e 129 158
e 129 179
e 129 202
e 129 204
e 129 234
e 129 275
e 129 277
e 129 287
e 129 354
e 129 384
e 129 406
e 129 457
e 129 500
e 130 138
e 130 161
e 130 174
e 130 234
e 130 278
e 130 310
e 130 318
e 130 331
e 130 345
e 130 349
e 130 421
e 130 430
e 130 448
e 131 163
e 131 171
e 131 189
e 131 296
e 131 313
e 131 323
e 131 345
e 131 367
e 131 427
e 131 449
e 131 451
e 131 464
e 131 466
e 132 153
e 132 187
e 132 203
e 132 262
e 132 344
e 132 349
e 132 368
e 132 402
e 132 403
e 132 411
e 132 425
e 132 435
e 133 189
e 133 237
e 133 291
e 133 294
e 133 334
e 133 351
e 133 383
e 133 396
e 133 420
e 134 149
e 134 184
e 134 198
e 134 217
e 134 219
e 134 251
e 134 391
e 134 420
e 134 474
e 134 484
e 135 137
e 135 155
e 135 193
e 135 265
e 135 334
e 135 352
e 135 362
e 135 368
e 135 385
e 135 454
e 136 147
e 136 150
e 136 326
e 136 334
e 136 376
e 136 393
e 136 400
e 136 406
e 136 424
e 136 431
e 136 432
e 136 434
e 136 444
e 136 500
e 137 177
e 137 187
e 137 194
e 137 195
e 137 257
e 137 304
e 137 325
e 137 348
e 137 361
e 137 495
e 138 148
e 138 158
e 138 180
e 138 192
e 138 244
e 138 265
e 138 292
e 138 343
e 138 402
e 138 405
e 138 480
e 138 487
e 139 143
e 139 164
e 139 195
e 139 203
e 139 217
e 139 239
e 139 304
e 139 361
e 139 437
e 139 462
e 140 162
e 140 195
e 140 274
e 140 308
e 140 386
e 140 441
e 140 469
e 140 470
e 141 175
e 141 260
e 141 329
e 141 348
e 141 376
e 141 391
e 142 157
e 142 170
e 142 180
e 142 192
e 142 228
e 142 276
e 142 278
e 142 301
e 142 365
e 142 406
e 142 424
e 142 472
e 142 494
e 143 145
e 143 151
e 143 175
e 143 197
e 143 204
e 143 284
e 143 317
e 143 331
e 143 353
e 143 364
e 144 221
e 144 229
e 144 241
e 144 311
e 144 364
e 144 408
e 144 439
e 144 445
e 144 458
e 144 484
e 145 154
e 145 175
e 145 191
e 145 269
e 145 296
e 145 312
e 145 452
e 145 456
e 146 153
e 146 195
e 146 197
e 146 236
e 146 239
e 146 267
e 146 315
e 146 326
e 146 350
e 146 365
e 146 471
e 146 481
e 146 492
e 147 220
e 147 239
e 147 337
e 147 353
e 147 394
e 147 476
e 148 149
e 148 256
e 148 303
e 148 305
e 148 329
e 148 334
e 148 350
e 148 418
e 148 481
e 149 224
e 149 229
e 149 239
e 149 268
e 149 338
e 149 382
e 149 408
e 149 433
e 149 434
e 149 446
e 149 476
e 150 153
e 150 305
e 150 315
e 150 354
e 150 376
e 150 396
e 150 474
e 151 177
e 151 342
e 151 349
e 151 398
e 151 399
e 152 157
e 152 158
e 152 281
e 152 310
e 152 320
e 152 321
e 152 344
e 152 352
e 152 378
e 152 414
e 152 447
e 152 483
e 153 216
e 153 235
e 153 262
e 153 313
e 153 368
e 153 417
e 153 441
e 153 467
e 153 471
e 153 477
e 154 171
e 154 197
e 154 245
e 154 262
e 154 348
e 154 353
e 154 380
e 154 402
e 154 413
e 154 458
e 155 159
e 155 198
e 155 251
e 155 265
e 155 312
e 155 333
e 155 368
e 155 369
e 155 435
e 155 470
e 155 487
e 156 264
e 156 266
e 156 270
e 156 271
e 156 287
e 156 303
e 156 311
e 156 469
e 156 491
e 157 180
e 157 185
e 157 220
e 157 299
e 157 349
e 157 355
e 157 362
e 157 376
e 157 378
e 157 402
e 157 454
e 157 460
e 158 217
e 158 273
e 158 292
e 158 356
e 158 390
e 158 417
e 158 454
e 159 238
e 159 262
e 159 321
e 159 392
e 159 496
e 159 500
e 160 203
e 160 210
e 160 253
e 160 315
e 160 443
e 160 453
e 160 487
e 161 180
e 161 229
e 161 287
e 161 308
e 161 377
e 161 405
e 161 414
e 161 427
e 161 458
e 162 336
e 162 344
e 162 395
e 162 444
e 162 469
e 162 493
e 163 280
e 163 283
e 163 337
e 163 395
e 163 415
e 163 446
e 163 451
e 164 233
e 164 238
e 164 338
e 164 396
e 164 410
e 164 435
e 164 445
e 164 472
e 165 170
e 165 260
e 165 286
e 165 309
e 165 382
e 165 407
e 166 169
e 166 173
e 166 190
e 166 200
e 166 317
e 166 325
e 166 329
e 166 330
e 166 344
e 166 372
e 166 389
e 166 394
e 166 395
e 166 399
e 166 408
e 166 459
e 166 468
e 167 179
e 167 216
e 167 274
e 167 276
e 167 343
e 167 394
e 167 413
e 167 428
e 167 431
e 167 448
e 167 493
e 168 217
e 168 293
e 168 485
e 169 181
e 169 220
e 169 221
e 169 232
e 169 284
e 169 343
e 169 478
e 169 491
e 170 172
e 170 247
e 170 291
e 170 324
e 170 333
e 170 358
e 170 399
e 170 433
e 170 443
e 170 466
e 170 479
e 170 490
e 171 216
e 171 232
e 171 286
e 171 289
e 171 308
e 171 366
e 171 462
e 172 181
e 172 221
e 172 256
e 172 307
e 172 339
e 172 385
e 172 393
e 172 413
e 172 440
e 172 469
e 173 176
e 173 208
e 173 300
e 173 338
e 173 381
e 173 400
e 173 433
e 174 198
e 174 208
e 174 231
e 174 243
e 174 255
e 174 337
e 174 387
e 174 422
e 174 431
e 174 437
e 175 198
e 175 227
e 175 258
e 175 265
e 175 325
e 175 357
e 175 396
e 175 399
e 175 431
e 175 438
e 175 445
e 175 458
e 175 484
e 176 239
e 176 298
e 176 299
e 176 321
e 176 416
e 176 454
e 176 455
e 176 486
e 176 497
e 177 227
e 177 323
e 177 346
e 177 363
e 177 365
e 177 454
e 177 461
e 178 236
e 178 238
e 178 285
e 178 384
e 178 391
e 178 403
e 178 431
e 178 499
e 179 210
e 179 240
e 179 284
e 179 297
e 179 303
e 179 342
e 179 398
e 179 426
e 179 490
e 180 216
e 180 352
e 180 382
e 180 395
e 180 421
e 180 433
e 180 498
e 181 216
e 181 317
e 181 385
e 181 386
e 181 412
e 181 428
e 182 225
e 182 232
e 182 264
e 182 287
e 182 291
e 182 292
e 182 297
e 182 354
e 182 356
e 182 404
e 182 476
e 183 229
e 183 277
e 183 288
e 183 345
e 183 351
e 183 359
e 183 364
e 183 395
e 183 406
e 183 414
e 183 423
e 183 493
e 184 204
e 184 246
e 184 275
e 184 366
e 184 421
e 184 422
e 184 423
e 185 212
e 185 258
e 185 279
e 185 348
e 185 394
e 185 404
e 185 479
e 186 273
e 186 289
e 186 317
e 186 341
e 186 384
e 186 455
e 187 219
e 187 247
e 187 264
e 187 309
e 187 322
e 187 383
e 187 422
e 187 453
e 187 476
e 187 497
e 188 311
e 188 331
e 188 358
e 188 363
e 188 410
e 188 474
e 188 477
e 189 325
e 189 356
e 189 365
e 189 414
e 189 456
e 189 471
e 189 499
e 190 191
e 190 193
e 190 268
e 190 280
e 190 317
e 190 331
e 190 395
e 190 406
e 190 422
e 190 446
e 190 447
e 190 497
e 191 200
e 191 246
e 191 272
e 191 319
e 191 338
e 191 381
e 191 382
e 192 233
e 192 235
e 192 238
e 192 265
e 192 280
e 192 294
e 192 332
e 192 394
e 192 439
e 193 204
e 193 235
e 193 245
e 193 249
e 193 274
e 193 304
e 193 323
e 193 327
e 193 482
e 194 230
e 194 262
e 194 389
e 194 398
e 194 399
e 194 468
e 194 491
e 195 216
e 195 222
e 195 228
e 195 295
e 195 297
e 195 320
e 195 370
e 195 401
e 195 424
e 196 205
e 196 223
e 196 224
e 196 246
e 196 283
e 196 353
e 196 372
e 196 384
e 196 396
e 196 413
e 196 421
e 196 493
e 197 204
e 197 346
e 198 243
e 198 368
e 198 407
e 198 449
e 198 481
e 199 221
e 199 227
e 199 251
e 199 257
e 199 259
e 199 262
e 199 263
e 199 346
e 199 356
e 199 398
e 199 400
e 199 435
e 199 468
e 199 499
e 200 202
e 200 211
e 200 251
e 200 257
e 200 268
e 200 275
e 200 322
e 200 341
e 200 351
e 200 352
e 200 356
e 200 385
e 200 397
e 200 423
e 200 437
e 200 468
e 201 244
e 201 345
e 201 363
e 201 438
e 201 469
e 201 494
e 202 243
e 202 279
e 202 326
e 202 451
e 202 453
e 202 468
e 203 311
e 203 314
e 203 319
e 203 324
e 203 334
e 203 402
e 203 468
e 204 208
e 204 226
e 204 245
e 204 254
e 204 275
e 204 312
e 204 313
e 204 314
e 204 347
e 204 351
e 204 376
e 204 415
e 205 225
e 205 266
e 205 287
e 205 318
e 205 324
e 205 357
e 205 369
e 205 380
e 205 413
e 205 438
e 205 447
e 206 252
e 206 374
e 206 386
e 206 391
e 206 411
e 206 473
e 207 215
e 207 293
e 207 323
e 207 326
e 207 338
e 207 339
e 207 418
e 207 449
e 207 467
e 207 495
e 208 310
e 208 324
e 208 328
e 208 367
e 208 382
e 208 399
e 208 426
e 208 436
e 209 283
e 209 284
e 209 289
e 209 331
e 209 341
e 209 346
e 209 372
e 209 411
e 209 423
e 209 450
e 209 453
e 209 461
e 209 466
e 210 242
e 210 259
e 210 318
e 210 320
e 210 330
e 210 350
e 210 384
e 210 438
e 210 487
e 211 280
e 211 287
e 211 321
e 211 341
e 211 345
e 211 408
e 211 479
e 212 216
e 212 239
e 212 246
e 212 276
e 212 300
e 212 355
e 212 468
e 212 474
e 212 475
e 213 214
e 213 230
e 213 241
e 213 405
e 213 407
e 213 431
e 214 249
e 214 347
e 214 356
e 214 384
e 214 393
e 214 471
e 214 495
e 215 225
e 215 242
e 215 284
e 215 305
e 215 322
e 215 350
e 215 359
e 215 364
e 215 365
e 215 420
e 215 424
e 215 425
e 215 445
e 215 452
e 215 479
e 215 498
e 216 235
e 216 246
e 216 277
e 216 281
e 216 284
e 216 360
e 216 402
e 216 405
e 216 417
e 216 467
e 216 477
e 216 499
e 217 291
e 217 329
e 217 369
e 217 429
e 217 431
e 217 433
e 217 489
e 218 246
e 218 286
e 218 350
e 218 359
e 218 456
e 218 465
e 219 252
e 219 253
e 219 260
e 219 303
e 219 477
e 219 496
e 220 223
e 220 281
e 220 304
e 220 311
e 220 324
e 220 341
e 220 381
e 220 419
e 220 422
e 220 424
e 220 439
e 220 452
e 220 499
e 221 249
e 221 271
e 221 288
e 221 318
e 221 419
e 221 421
e 222 233
e 222 242
e 222 245
e 222 276
e 222 295
e 222 321
e 222 337
e 222 355
e 222 388
e 222 399
e 222 420
e 222 435
e 222 445
e 223 350
e 223 353
e 223 361
e 223 365
e 223 407
e 223 415
e 223 420
e 223 424
e 223 453
e 223 500
e 224 254
e 224 257
e 224 264
e 224 316
e 224 326
e 224 468
e 224 473
e 224 492
e 225 274
e 225 315
e 225 329
e 225 374
e 225 381
e 225 448
e 225 477
e 226 275
e 226 310
e 226 368
e 226 457
e 227 319
e 227 324
e 227 363
e 227 397
e 227 400
e 227 428
e 227 447
e 228 283
e 228 306
e 228 318
e 228 339
e 228 372
e 228 406
e 228 407
e 228 418
e 228 422
e 228 424
e 228 462
e 229 230
e 229 265
e 229 339
e 229 401
e 229 405
e 229 408
e 229 440
e 229 464
e 229 495
e 230 312
e 230 328
e 230 378
e 230 400
e 230 416
e 230 443
e 231 276
e 231 303
e 231 340
e 231 371
e 231 373
e 231 435
e 231 471
e 231 478
e 232 313
e 232 388
e 232 389
e 232 391
e 232 412
e 232 443
e 232 484
e 233 290
e 233 401
e 233 416
e 233 435
e 234 272
e 234 275
e 234 277
e 234 281
e 234 294
e 234 340
e 234 403
e 234 426
e 234 436
e 234 449
e 234 471
e 235 468
e 236 263
e 236 305
e 236 317
e 236 360
e 236 368
e 236 371
e 236 384
e 236 402
e 236 469
e 236 485
e 237 317
e 237 320
e 237 394
e 238 284
e 238 384
e 238 403
e 238 415
e 239 298
e 239 341
e 239 362
e 239 369
e 239 382
e 239 385
e 239 396
e 239 415
e 239 441
e 239 462
e 240 254
e 240 293
e 240 366
e 240 385
e 240 389
e 240 391
e 240 398
e 240 430
e 240 437
e 240 441
e 240 462
e 241 243
e 241 273
e 241 312
e 241 314
e 241 315
e 241 345
e 241 363
e 241 381
e 241 406
e 241 449
e 242 274
e 242 290
e 242 316
e 242 321
e 242 334
e 242 397
e 242 449
e 242 452
e 243 278
e 243 331
e 243 334
e 243 336
e 243 373
e 243 388
e 243 392
e 243 414
e 243 415
e 243 449
e 243 454
e 243 479
e 243 492
e 244 251
e 244 345
e 244 360
e 244 489
e 245 269
e 245 280
e 245 309
e 245 314
e 245 316
e 245 330
e 245 440
e 246 319
e 246 356
e 246 361
e 246 377
e 246 387
e 246 436
e 246 457
e 246 474
e 247 253
e 247 296
e 247 360
e 247 361
e 247 363
e 247 389
e 247 391
e 247 394
e 247 436
e 247 438
e 247 448
e 247 453
e 248 253
e 248 258
e 248 315
e 248 320
e 248 333
e 248 335
e 248 377
e 248 378
e 248 403
e 248 464
e 248 494
e 249 257
e 249 340
e 249 344
e 249 367
e 249 390
e 249 427
e 249 428
e 249 430
e 249 448
e 249 481
e 249 499
e 250 271
e 250 323
e 250 366
e 250 374
e 251 253
e 251 261
e 251 274
e 251 277
e 251 282
e 251 302
e 251 305
e 251 320
e 251 337
e 251 370
e 251 426
e 251 444
e 251 479
e 251 484
e 252 254
e 252 264
e 252 310
e 252 347
e 252 379
e 252 385
e 252 411
e 253 282
e 253 299
e 253 307
e 253 362
e 253 378
e 253 422
e 253 424
e 253 439
e 254 318
e 254 331
e 254 340
e 254 360
e 254 425
e 254 453
e 254 494
e 255 257
e 255 270
e 255 282
e 255 308
e 255 318
e 255 322
e 255 406
e 255 460
e 255 462
e 255 466
e 256 287
e 256 289
e 256 295
e 256 325
e 256 345
e 256 359
e 256 386
e 256 434
e 256 451
e 256 479
e 257 336
e 257 430
e 257 447
e 257 480
e 258 323
e 258 325
e 258 333
e 258 374
e 258 380
e 258 409
e 258 476
e 259 283
e 259 373
e 259 399
e 259 423
e 259 464
e 259 465
e 260 308
e 260 314
e 260 330
e 260 335
e 260 368
e 260 422
e 260 477
e 261 271
e 261 286
e 261 291
e 261 309
e 261 311
e 261 312
e 261 437
e 261 459
e 261 472
e 261 483
e 261 493
e 262 302
e 262 406
e 262 462
e 263 282
e 263 322
e 263 450
e 263 475
e 264 292
e 264 333
e 264 340
e 264 395
e 264 404
e 264 431
e 264 452
e 264 456
e 265 278
e 265 304
e 265 347
e 265 393
e 265 427
e 265 479
e 266 299
e 266 349
e 266 361
e 266 386
e 266 443
e 266 457
e 266 482
e 266 488
e 267 337
e 267 348
e 267 426
e 267 455
e 267 493
e 268 276
e 268 282
e 268 283
e 268 312
e 268 330
e 268 347
e 268 400
e 268 401
e 268 406
e 268 446
e 268 472
e 269 338
e 269 345
e 269 392
e 269 488
e 270 289
e 270 343
e 271 316
e 271 387
e 271 389
e 271 396
e 271 423
e 271 431
e 271 459
e 271 493
e 271 496
e 272 427
e 272 465
e 273 409
e 273 420
e 273 422
e 273 432
e 273 476
e 273 477
e 274 305
e 274 306
e 274 312
e 274 360
e 274 402
e 274 431
e 274 470
e 274 488
e 275 280
e 275 309
e 275 338
e 275 343
e 275 421
e 275 429
e 275 446
e 275 498
e 276 334
e 276 341
e 276 342
e 276 366
e 277 287
e 277 297
e 277 345
e 277 366
e 277 384
e 277 430
e 277 441
e 278 333
e 278 340
e 278 426
e 278 447
e 278 471
e 278 482
e 278 492
e 279 280
e 279 304
e 279 325
e 279 365
e 279 388
e 279 429
e 279 431
e 279 449
e 279 472
e 279 491
e 280 307
e 280 319
e 280 356
e 280 357
e 280 379
e 280 401
e 280 404
e 280 459
e 280 488
e 281 306
e 281 321
e 281 342
e 281 425
e 281 468
e 282 299
e 282 311
e 282 330
e 282 405
e 282 421
e 282 422
e 283 336
e 283 355
e 283 419
e 283 435
e 283 454
e 283 456
e 284 301
e 284 350
e 284 401
e 284 406
e 284 422
e 284 493
e 285 290
e 285 321
e 285 332
e 285 334
e 285 357
e 285 368
e 285 458
e 285 460
e 285 461
e 286 303
e 286 312
e 286 318
e 286 331
e 286 356
e 286 404
e 286 446
e 286 478
e 286 486
e 287 313
e 287 359
e 287 363
e 287 366
e 287 414
e 287 444
e 287 473
e 288 333
e 288 350
e 288 395
e 288 440
e 288 455
e 289 298
e 289 312
e 289 376
e 289 381
e 289 400
e 289 407
e 289 420
e 289 439
e 289 477
e 289 486
e 290 312
e 290 364
e 290 399
e 290 402
e 290 444
e 291 313
e 291 322
e 291 351
e 291 359
e 291 486
e 292 314
e 292 318
e 292 402
e 292 407
e 292 427
e 292 428
e 292 458
e 293 329
e 293 397
e 293 401
e 293 416
e 293 448
e 293 451
e 294 333
e 294 451
e 294 480
e 295 323
e 295 364
e 295 414
e 295 444
e 296 304
e 296 413
e 296 438
e 297 303
e 297 331
e 297 332
e 297 337
e 297 354
e 297 359
e 297 400
e 297 480
e 298 302
e 298 310
e 298 378
e 298 451
e 299 305
e 299 308
e 299 317
e 299 338
e 299 342
e 299 354
e 299 369
e 299 427
e 300 316
e 300 322
e 300 425
e 300 500
e 301 324
e 301 378
e 301 434
e 301 445
e 301 457
e 301 475
e 301 483
e 301 493
e 301 497
e 302 317
e 302 332
e 302 338
e 302 359
e 302 363
e 302 373
e 302 465
e 302 467
e 302 489
e 302 491
e 302 498
e 303 312
e 303 334
e 303 337
e 303 352
e 303 358
e 303 427
e 303 450
e 304 321
e 304 353
e 304 375
e 304 392
e 304 414
e 304 463
e 305 351
e 305 355
e 305 359
e 305 386
e 305 476
e 306 314
e 306 330
e 306 358
e 306 388
e 306 403
e 306 426
e 306 442
e 307 328
e 307 330
e 307 407
e 307 409
e 307 421
e 307 423
e 307 438
e 308 309
e 308 388
e 308 487
e 308 493
e 309 403
e 309 413
e 309 492
e 309 495
e 310 316
e 310 379
e 310 382
e 311 323
e 311 363
e 311 372
e 311 416
e 311 425
e 312 317
e 312 367
e 312 407
e 312 427
e 312 433
e 312 455
e 312 483
e 312 500
e 313 321
e 313 343
e 313 372
e 313 434
e 313 483
e 314 330
e 314 344
e 314 347
e 314 461
e 315 322
e 315 349
e 315 371
e 315 471
e 316 326
e 316 358
e 316 398
e 316 417
e 316 444
e 316 477
e 317 320
e 317 342
e 317 357
e 317 370
e 317 378
e 317 441
e 318 356
e 318 390
e 318 401
e 318 410
e 318 441
e 318 458
e 318 490
e 319 369
e 319 379
e 319 384
e 319 404
e 320 397
e 320 444
e 320 478
e 320 479
e 321 333
e 321 355
e 321 429
e 321 432
e 321 450
e 321 455
e 321 466
e 321 470
e 322 326
e 322 355
e 322 359
e 322 438
e 323 390
e 323 418
e 323 441
e 323 488
e 324 411
e 324 413
e 324 470
e 324 482
e 325 338
e 325 341
e 325 350
e 325 407
e 326 335
e 326 355
e 326 386
e 326 394
e 326 438
e 327 380
e 327 409
e 328 353
e 328 381
e 329 334
e 329 350
e 329 369
e 329 443
e 330 345
e 330 358
e 330 364
e 330 394
e 330 430
e 330 443
e 331 402
e 331 430
e 332 394
e 332 412
e 332 421
e 332 422
e 332 430
e 332 460
e 333 362
e 333 433
e 333 475
e 334 426
e 334 434
e 334 469
e 335 369
e 335 458
e 336 386
e 336 403
e 336 412
e 336 450
e 336 493
e 337 374
e 337 424
e 337 451
e 338 416
e 338 436
e 338 457
e 338 483
e 338 497
e 339 381
e 339 414
e 339 419
e 339 423
e 339 430
e 339 450
e 339 462
e 339 463
e 340 350
e 340 369
e 340 466
e 341 361
e 341 402
e 341 430
e 341 452
e 341 481
e 341 498
e 342 390
e 342 404
e 342 437
e 342 466
e 342 472
e 343 362
e 343 370
e 343 416
e 343 423
e 343 450
e 343 452
e 344 373
e 344 387
e 344 419
e 344 475
e 344 478
e 344 480
e 345 367
e 345 371
e 345 373
e 345 375
e 345 378
e 345 464
e 346 368
e 346 412
e 346 428
e 346 437
e 346 453
e 346 463
e 346 487
e 347 357
e 347 398
e 347 493
e 348 384
e 348 386
e 348 388
e 349 354
e 349 364
e 349 388
e 349 424
e 349 431
e 349 447
e 350 373
e 350 427
e 350 476
e 351 354
e 351 392
e 351 451
e 351 467
e 352 427
e 352 433
e 353 358
e 353 396
e 353 408
e 353 450
e 353 458
e 353 470
e 354 445
e 354 447
e 354 452
e 354 476
e 355 365
e 355 439
e 355 449
e 355 465
e 356 426
e 356 427
e 356 443
e 356 468
e 357 365
e 357 393
e 357 464
e 357 481
e 357 485
e 357 492
e 358 406
e 358 417
e 358 422
e 358 424
e 359 384
e 359 389
e 359 421
e 359 425
e 359 437
e 359 494
e 359 495
e 360 384
e 360 388
e 360 441
e 360 465
e 361 384
e 361 397
e 361 401
e 361 404
e 361 443
e 361 468
e 361 476
e 362 365
e 362 421
e 362 476
e 362 500
e 363 365
e 363 367
e 363 383
e 363 392
e 363 450
e 363 460
e 363 472
e 364 375
e 364 406
e 364 427
e 364 453
e 364 458
e 365 369
e 365 402
e 365 403
e 366 418
e 366 420
e 366 427
e 366 442
e 367 418
e 367 431
e 367 480
e 368 394
e 368 435
e 368 477
e 368 495
e 369 397
e 369 410
e 369 423
e 369 477
e 370 375
e 370 385
e 370 395
e 370 396
e 370 438
e 370 454
e 370 465
e 371 390
e 371 459
e 371 480
e 371 492
e 371 496
e 372 422
e 372 434
e 372 479
e 373 388
e 373 446
e 373 448
e 374 380
e 374 400
e 374 448
e 375 451
e 376 388
e 376 440
e 377 386
e 377 418
e 377 419
e 377 444
e 377 468
e 377 485
e 378 381
e 378 442
e 378 469
e 378 486
e 378 490
e 378 493
e 379 425
e 379 465
e 380 448
e 380 450
e 380 482
e 381 432
e 381 461
e 381 498
e 383 391
e 383 408
e 383 418
e 383 424
e 383 452
e 383 474
e 384 404
e 384 409
e 384 425
e 384 427
e 384 434
e 384 452
e 384 461
e 385 425
e 385 457
e 385 460
e 386 447
e 386 491
e 387 427
e 388 408
e 388 419
e 388 430
e 388 466
e 388 496
e 389 411
e 389 414
e 389 453
e 389 480
e 389 483
e 390 411
e 390 423
e 390 461
e 390 475
e 391 399
e 391 448
e 391 463
e 392 397
e 392 402
e 392 408
e 392 429
e 392 433
e 392 492
e 393 407
e 393 432
e 394 410
e 394 448
e 394 452
e 394 455
e 394 482
e 395 401
e 395 409
e 395 437
e 395 442
e 395 448
e 395 490
e 396 439
e 396 442
e 397 407
e 398 400
e 398 427
e 398 436
e 399 400
e 399 413
e 399 433
e 399 437
e 399 482
e 400 449
e 400 467
e 400 487
e 401 416
e 401 496
e 402 484
e 403 467
e 405 446
e 406 449
e 406 466
e 407 442
e 407 483
e 408 409
e 408 447
e 408 493
e 409 424
e 409 429
e 410 435
e 410 497
e 411 446
e 412 414
e 412 432
e 414 415
e 414 488
e 414 491
e 415 426
e 416 435
e 416 461
e 417 466
e 417 483
e 418 489
e 418 499
e 419 441
e 419 460
e 419 472
e 419 474
e 420 424
e 420 465
e 421 437
e 421 471
e 422 435
e 422 466
e 422 477
e 422 481
e 423 471
e 423 499
e 424 445
e 424 446
e 424 459
e 425 447
e 425 495
e 426 435
e 426 478
e 427 453
e 429 488
e 430 440
e 431 450
e 431 466
e 432 495
e 433 492
e 434 438
e 434 472
e 434 487
e 435 444
e 435 457
e 435 479
e 436 453
e 436 470
e 436 485
e 436 493
e 437 486
e 437 495
e 438 473
e 440 443
e 440 465
e 440 489
e 440 500
e 442 452
e 442 491
e 442 494
e 444 449
e 444 458
e 444 460
e 446 452
e 448 450
e 448 479
e 448 490
e 449 476
e 450 461
e 450 495
e 451 490
e 453 475
e 454 457
e 454 479
e 454 485
e 455 458
e 455 487
e 455 489
e 456 492
e 457 462
e 457 488
e 458 471
e 458 497
e 461 479
e 461 483
e 462 481
e 462 482
e 464 482
e 464 487
e 465 469
e 466 482
e 467 477
e 467 488
e 469 476
e 472 497
e 472 499
e 473 484
e 474 494
e 474 495
e 475 500
e 477 484
e 477 489
e 477 497
e 479 480
e 479 491
e 480 483
e 489 494
e 491 497
e 494 495
